Problem:    
Rows:       256
Columns:    89 (72 integer, 72 binary)
Non-zeros:  800
Status:     INTEGER OPTIMAL
Objective:  value = 108.925328 (MINimum)

   No.   Row name        Activity     Lower bound   Upper bound
------ ------------    ------------- ------------- -------------
     1 r.5                   108.925             0               
     2 r.6                   24.3488      -989.228               
     3 r.7                   1108.93             0               
     4 r.8                  -975.651      -976.967               
     5 r.9                   1108.93             0               
     6 r.10                 -937.558      -988.784               
     7 r.11                  108.925             0               
     8 r.12                  69.9527      -974.191               
     9 r.13                  1108.93             0               
    10 r.14                 -948.774      -982.337               
    11 r.15                  108.925             0               
    12 r.16                  69.9527      -962.459               
    13 r.17                  1108.93             0               
    14 r.18                 -966.437      -990.786               
    15 r.19                  108.925             0               
    16 r.20                 -979.028      -980.344               
    17 r.21                  1108.93             0               
    18 r.22                 -975.651       -986.05               
    19 r.23                  108.925             0               
    20 r.24                  24.3488      -971.597               
    21 r.25                  1108.93             0               
    22 r.26                 -998.684      -998.684               
    23 r.27                  108.925             0               
    24 r.28                   1.3159      -998.226               
    25 r.29                  108.925             0               
    26 r.30                 -936.022      -960.371               
    27 r.31                  1108.93             0               
    28 r.32                 -891.075      -915.423               
    29 r.33                  1108.93             0               
    30 r.34                 -891.075      -961.027               
    31 r.35                  108.925             0               
    32 r.36                  108.925      -915.387               
    33 r.37                        1             1             = 
    34 r.38                        1             1             = 
    35 r.39                        1             1             = 
    36 r.40                        1             1             = 
    37 r.41                        1             1             = 
    38 r.42                        1             1             = 
    39 r.43                        1             1             = 
    40 r.44                        1             1             = 
    41 r.45                     1001             2               
    42 r.46                    -1001         -1001               
    43 r.47                  2038.09      -988.784               
    44 r.48                     1001             2               
    45 r.49                    -1001         -1001               
    46 r.50                   2045.6      -974.191               
    47 r.51                     1001             2               
    48 r.52                    -1001         -1001               
    49 r.53                  2026.88      -982.337               
    50 r.54                     1001             2               
    51 r.55                    -1001         -1001               
    52 r.56                   2045.6      -962.459               
    53 r.57                     1001             2               
    54 r.58                    -1001         -1001               
    55 r.59                  2009.21      -990.786               
    56 r.60                     1001             2               
    57 r.61                    -1001         -1001               
    58 r.62                  996.623      -980.344               
    59 r.63                     1001             2               
    60 r.64                    -1001         -1001               
    61 r.65                     2000       -986.05               
    62 r.66                     1001             2               
    63 r.67                    -1001         -1001               
    64 r.68                     2000      -971.597               
    65 r.69                  23.0329      -989.228               
    66 r.70                 -976.967      -976.967               
    67 r.71                  23.0329      -989.228               
    68 r.72                 -976.967      -976.967               
    69 r.73                 -960.371      -960.371               
    70 r.74                 -915.423      -915.423               
    71 r.75                 -960.371      -960.371               
    72 r.76                 -915.423      -915.423               
    73 r.77                     1001             2               
    74 r.78                    -1001         -1001               
    75 r.79                  2084.58      -961.027               
    76 r.80                     1001             2               
    77 r.81                    -1001         -1001               
    78 r.82                  2084.58      -915.387               
    79 r.83                     1001             2               
    80 r.84                    -1001         -1001               
    81 r.85                  1961.91       10.7718               
    82 r.86                     1001             2               
    83 r.87                    -1001         -1001               
    84 r.88                   1954.4       23.0329               
    85 r.89                        2             2               
    86 r.90                       -2         -1001               
    87 r.91                 -11.2162      -982.337               
    88 r.92                     1000             2               
    89 r.93                    -1000         -1001               
    90 r.94                     2000      -962.459               
    91 r.95                        2             2               
    92 r.96                       -2         -1001               
    93 r.97                 -28.8794      -990.786               
    94 r.98                     1000             2               
    95 r.99                    -1000         -1001               
    96 r.100                 951.019      -980.344               
    97 r.101                       2             2               
    98 r.102                      -2         -1001               
    99 r.103                -38.0937       -986.05               
   100 r.104                    1000             2               
   101 r.105                   -1000         -1001               
   102 r.106                  1954.4      -971.597               
   103 r.107                -938.873      -988.784               
   104 r.108                 68.6368      -974.191               
   105 r.109                -938.873      -988.784               
   106 r.110                 68.6368      -974.191               
   107 r.111                    1001             2               
   108 r.112                   -1001         -1001               
   109 r.113                 1001.54      -960.371               
   110 r.114                    1001             2               
   111 r.115                   -1001         -1001               
   112 r.116                 2038.97      -915.423               
   113 r.117                -953.517      -961.027               
   114 r.118                 46.4829      -915.387               
   115 r.119                -961.027      -961.027               
   116 r.120                 38.9726      -915.387               
   117 r.121                    1001             2               
   118 r.122                   -1001         -1001               
   119 r.123                 1973.12       10.7718               
   120 r.124                    1001             2               
   121 r.125                   -1001         -1001               
   122 r.126                  1954.4       23.0329               
   123 r.127                       2             2               
   124 r.128                      -2         -1001               
   125 r.129                 11.2162       11.2162               
   126 r.130                    1000             2               
   127 r.131                   -1000         -1001               
   128 r.132                    2000       25.8088               
   129 r.133                -982.337      -982.337               
   130 r.134                 36.3897      -962.459               
   131 r.135                 30.2541      -982.337               
   132 r.136                 1048.98      -962.459               
   133 r.137                       2             2               
   134 r.138                      -2         -1001               
   135 r.139                -26.8775       -986.05               
   136 r.140                    1000             2               
   137 r.141                   -1000         -1001               
   138 r.142                  1954.4      -971.597               
   139 r.143                 -950.09      -982.337               
   140 r.144                 68.6368      -962.459               
   141 r.145                 -950.09      -982.337               
   142 r.146                 68.6368      -962.459               
   143 r.147                    1001             2               
   144 r.148                   -1001         -1001               
   145 r.149                 1012.75      -960.371               
   146 r.150                    1001             2               
   147 r.151                   -1001         -1001               
   148 r.152                 2038.97      -915.423               
   149 r.153                -942.301      -961.027               
   150 r.154                 57.6991      -915.387               
   151 r.155                -961.027      -961.027               
   152 r.156                 38.9726      -915.387               
   153 r.157                    1001             2               
   154 r.158                   -1001         -1001               
   155 r.159                 1990.79       10.7718               
   156 r.160                    1001             2               
   157 r.161                   -1001         -1001               
   158 r.162                 3003.38       23.0329               
   159 r.163                       2             2               
   160 r.164                      -2         -1001               
   161 r.165                 28.8794       11.2162               
   162 r.166                    1000             2               
   163 r.167                   -1000         -1001               
   164 r.168                 3048.98       25.8088               
   165 r.169                       2             2               
   166 r.170                      -2         -1001               
   167 r.171                -9.21426       -986.05               
   168 r.172                    1000             2               
   169 r.173                   -1000         -1001               
   170 r.174                 3003.38      -971.597               
   171 r.175                -967.753      -990.786               
   172 r.176                -980.344      -980.344               
   173 r.177                -967.753      -990.786               
   174 r.178                -980.344      -980.344               
   175 r.179                    1001             2               
   176 r.180                   -1001         -1001               
   177 r.181                 1030.41      -960.371               
   178 r.182                    1001             2               
   179 r.183                   -1001         -1001               
   180 r.184                 3087.95      -915.423               
   181 r.185                -924.638      -961.027               
   182 r.186                 75.3623      -915.387               
   183 r.187                 87.9532      -961.027               
   184 r.188                 1087.95      -915.387               
   185 r.189                    1001             2               
   186 r.190                   -1001         -1001               
   187 r.191                    2000       10.7718               
   188 r.192                    1001             2               
   189 r.193                   -1001         -1001               
   190 r.194                    2000       23.0329               
   191 r.195                       2             2               
   192 r.196                      -2         -1001               
   193 r.197                 38.0937       11.2162               
   194 r.198                    1000             2               
   195 r.199                   -1000         -1001               
   196 r.200                  2045.6       25.8088               
   197 r.201                       2             2               
   198 r.202                      -2         -1001               
   199 r.203                 26.8775       17.6632               
   200 r.204                    1000             2               
   201 r.205                   -1000         -1001               
   202 r.206                  2045.6       37.5408               
   203 r.207                       2             2               
   204 r.208                      -2         -1001               
   205 r.209                 9.21426       9.21426               
   206 r.210                    1000             2               
   207 r.211                   -1000         -1001               
   208 r.212                 996.623       19.6562               
   209 r.213                -976.967       -986.05               
   210 r.214                 23.0329      -971.597               
   211 r.215                -976.967       -986.05               
   212 r.216                 23.0329      -971.597               
   213 r.217                -960.371      -960.371               
   214 r.218                -915.423      -915.423               
   215 r.219                -960.371      -960.371               
   216 r.220                -915.423      -915.423               
   217 r.221                -915.423      -961.027               
   218 r.222                 84.5765      -915.387               
   219 r.223                -915.423      -961.027               
   220 r.224                 84.5765      -915.387               
   221 r.225                    1001             2               
   222 r.226                   -1001         -1001               
   223 r.227                 2998.46       11.2162               
   224 r.228                    1001             2               
   225 r.229                   -1001         -1001               
   226 r.230                 1961.03       25.8088               
   227 r.231                    1001             2               
   228 r.232                   -1001         -1001               
   229 r.233                 2987.25       17.6632               
   230 r.234                    1001             2               
   231 r.235                   -1001         -1001               
   232 r.236                 1961.03       37.5408               
   233 r.237                    1001             2               
   234 r.238                   -1001         -1001               
   235 r.239                 2969.59       9.21426               
   236 r.240                    1001             2               
   237 r.241                   -1001         -1001               
   238 r.242                 912.047       19.6562               
   239 r.243                    1001             2               
   240 r.244                   -1001         -1001               
   241 r.245                 3044.95      -961.027               
   242 r.246                    1001             2               
   243 r.247                   -1001         -1001               
   244 r.248                    2000      -915.387               
   245 r.249                    1001             2               
   246 r.250                   -1001         -1001               
   247 r.251                 1915.42       10.7718               
   248 r.252                    1001             2               
   249 r.253                   -1001         -1001               
   250 r.254                 1915.42       23.0329               
   251 r.255                    1001             2               
   252 r.256                   -1001         -1001               
   253 r.257                 955.052       39.6289               
   254 r.258                    1001             2               
   255 r.259                   -1001         -1001               
   256 r.260                    2000       84.5765               

   No. Column name       Activity     Lower bound   Upper bound
------ ------------    ------------- ------------- -------------
     1 tt                    108.925             0               
     2 s_1_1        *              0             0             1 
     3 t_1_1                 84.5765             0               
     4 s_1_7        *              0             0             1 
     5 s_2_1        *              1             0             1 
     6 t_2_1                 84.5765             0               
     7 s_2_7        *              1             0             1 
     8 s_1_2        *              1             0             1 
     9 t_1_2                 46.4829             0               
    10 s_1_8        *              1             0             1 
    11 s_2_2        *              0             0             1 
    12 t_2_2                 38.9726             0               
    13 s_2_8        *              0             0             1 
    14 s_1_3        *              1             0             1 
    15 t_1_3                 57.6991             0               
    16 s_2_3        *              0             0             1 
    17 t_2_3                 38.9726             0               
    18 s_1_4        *              1             0             1 
    19 t_1_4                 75.3623             0               
    20 s_2_4        *              0             0             1 
    21 t_2_4                 1087.95             0               
    22 s_1_5        *              1             0             1 
    23 t_1_5                 84.5765             0               
    24 s_2_5        *              0             0             1 
    25 t_2_5                 84.5765             0               
    26 s_1_6        *              1             0             1 
    27 t_1_6                 107.609             0               
    28 s_2_6        *              0             0             1 
    29 t_2_6                 107.609             0               
    30 t_1_7                 1044.95             0               
    31 t_2_7                       0             0               
    32 t_1_8                       0             0               
    33 t_2_8                       0             0               
    34 r_1_1_2      *              1             0             1 
    35 u_1_1_2      *              0             0             1 
    36 r_2_1_2      *              1             0             1 
    37 u_2_1_2      *              0             0             1 
    38 r_1_1_3      *              1             0             1 
    39 u_1_1_3      *              0             0             1 
    40 r_2_1_3      *              1             0             1 
    41 u_2_1_3      *              0             0             1 
    42 r_1_1_4      *              1             0             1 
    43 u_1_1_4      *              0             0             1 
    44 r_2_1_4      *              1             0             1 
    45 u_2_1_4      *              0             0             1 
    46 r_1_1_5      *              1             0             1 
    47 u_1_1_5      *              0             0             1 
    48 r_2_1_5      *              1             0             1 
    49 u_2_1_5      *              0             0             1 
    50 r_1_1_8      *              1             0             1 
    51 u_1_1_8      *              0             0             1 
    52 r_2_1_8      *              1             0             1 
    53 u_2_1_8      *              0             0             1 
    54 r_1_2_3      *              0             0             1 
    55 u_1_2_3      *              0             0             1 
    56 r_2_2_3      *              1             0             1 
    57 u_2_2_3      *              0             0             1 
    58 r_1_2_4      *              0             0             1 
    59 u_1_2_4      *              0             0             1 
    60 r_2_2_4      *              1             0             1 
    61 u_2_2_4      *              0             0             1 
    62 r_1_2_5      *              0             0             1 
    63 u_1_2_5      *              0             0             1 
    64 r_2_2_5      *              1             0             1 
    65 u_2_2_5      *              0             0             1 
    66 r_1_2_7      *              1             0             1 
    67 u_1_2_7      *              0             0             1 
    68 r_2_2_7      *              1             0             1 
    69 u_2_2_7      *              0             0             1 
    70 r_1_3_5      *              0             0             1 
    71 u_1_3_5      *              0             0             1 
    72 r_2_3_5      *              1             0             1 
    73 u_2_3_5      *              0             0             1 
    74 r_1_3_7      *              1             0             1 
    75 u_1_3_7      *              0             0             1 
    76 r_2_3_7      *              1             0             1 
    77 u_2_3_7      *              0             0             1 
    78 r_1_4_5      *              0             0             1 
    79 u_1_4_5      *              0             0             1 
    80 r_2_4_5      *              1             0             1 
    81 u_2_4_5      *              0             0             1 
    82 r_1_4_7      *              1             0             1 
    83 u_1_4_7      *              0             0             1 
    84 r_2_4_7      *              1             0             1 
    85 u_2_4_7      *              0             0             1 
    86 r_1_7_8      *              1             0             1 
    87 u_1_7_8      *              0             0             1 
    88 r_2_7_8      *              1             0             1 
    89 u_2_7_8      *              0             0             1 

Integer feasibility conditions:

KKT.PE: max.abs.err = 4.55e-13 on row 158
        max.rel.err = 1.09e-16 on row 6
        High quality

KKT.PB: max.abs.err = 1.14e-13 on row 69
        max.rel.err = 1.18e-16 on row 69
        High quality

End of output
